c CNF file generated from BLIF2CNF script.
c Original BLIF file was blif/ex3.blif
p cnf 66 201
-1 -3 0
3 1  0
-3 2 0
-2 3  0
-4 -6 0
6 4  0
-6 5 0
-5 6  0
-7 -9 0
9 7  0
-9 8 0
-8 9  0
-10 -12 0
12 10  0
-12 11 0
-11 12  0
-13 -15 0
15 13  0
-15 14 0
-14 15  0
-16 -18 0
18 16  0
-18 17 0
-17 18  0
19 -25 0
20 -25 0
21 -25 0
-22 -25 0
-23 -25 0
25 -19 -20 -21 22 23  0
-25 24 0
-24 25  0
-19 -27 0
-21 -27 0
22 -27 0
23 -27 0
27 19 21 -22 -23  0
-27 26 0
-26 27  0
19 -29 0
-20 -29 0
21 -29 0
-22 -29 0
-23 -29 0
29 -19 20 -21 22 23  0
-29 28 0
-28 29  0
19 -31 0
20 -31 0
21 -31 0
-23 -31 0
31 -19 -20 -21 23  0
-31 30 0
-30 31  0
19 -33 0
-20 -33 0
-22 -33 0
23 -33 0
33 -19 20 22 -23  0
-33 32 0
-32 33  0
-19 -35 0
20 -35 0
-21 -35 0
-22 -35 0
-23 -35 0
35 19 -20 21 22 23  0
-35 34 0
-34 35  0
-19 -37 0
20 -37 0
21 -37 0
22 -37 0
23 -37 0
37 19 -20 -21 -22 -23  0
-37 36 0
-36 37  0
-19 -39 0
-20 -39 0
21 -39 0
22 -39 0
-23 -39 0
39 19 20 -21 -22 23  0
-39 38 0
-38 39  0
-19 -41 0
-20 -41 0
-21 -41 0
-22 -41 0
-23 -41 0
41 19 20 21 22 23  0
-41 40 0
-40 41  0
19 -44 0
-20 -44 0
-42 -44 0
44 -19 20 42  0
-44 43 0
-43 44  0
19 -46 0
-20 -46 0
21 -46 0
23 -46 0
46 -19 20 -21 -23  0
-46 45 0
-45 46  0
-19 -48 0
-20 -48 0
-21 -48 0
22 -48 0
48 19 20 21 -22  0
-48 47 0
-47 48  0
-20 -50 0
-21 -50 0
-22 -50 0
23 -50 0
50 20 21 22 -23  0
-50 49 0
-49 50  0
-19 -52 0
-20 -52 0
22 -52 0
52 19 20 -22  0
-52 51 0
-51 52  0
19 -54 0
22 -54 0
54 -19 -22  0
-54 53 0
-53 54  0
-19 -56 0
-21 -56 0
22 -56 0
56 19 21 -22  0
-56 55 0
-55 56  0
19 -58 0
-23 -58 0
58 -19 23  0
-58 57 0
-57 58  0
20 -60 0
-42 -60 0
60 -20 42  0
-60 59 0
-59 60  0
-28 -61 0
-30 -61 0
-34 -61 0
-40 -61 0
-45 -61 0
-49 -61 0
-51 -61 0
-55 -61 0
-59 -61 0
61 28 30 34 40 45 49 51 55 59  0
-61 7 0
-7 61  0
-26 -62 0
-36 -62 0
-38 -62 0
-40 -62 0
-45 -62 0
-47 -62 0
-49 -62 0
-59 -62 0
62 26 36 38 40 45 47 49 59  0
-62 10 0
-10 62  0
-24 -63 0
-32 -63 0
-34 -63 0
-36 -63 0
-38 -63 0
-40 -63 0
-59 -63 0
63 24 32 34 36 38 40 59  0
-63 13 0
-13 63  0
-28 -64 0
-34 -64 0
-36 -64 0
-38 -64 0
-43 -64 0
-47 -64 0
-49 -64 0
64 28 34 36 38 43 47 49  0
-64 16 0
-16 64  0
-53 -65 0
-55 -65 0
65 53 55  0
-65 1 0
-1 65  0
-36 -66 0
-55 -66 0
-57 -66 0
66 36 55 57  0
-66 4 0
-4 66  0
